39 41
29
3 3 32 27
3 4 12 34
3 5 7 16
3 6 15 25
3 7 25 34
3 8 0 16
3 9 15 16
3 10 36 15
3 11 32 30
3 15 7 21
4 3 11 38
4 4 1 37
4 5 21 36
4 6 35 27
4 8 35 33
4 9 3 15
4 12 32 15
4 15 28 25
4 16 18 15
5 3 20 33
5 4 27 21
5 5 5 36
5 6 27 15
5 8 10 15
5 10 15 31
5 11 10 23
5 13 0 24
5 18 22 15
39 15 0 0
